Route 1: 0 49 2 42 25 19 38 0
Route 2: 0 100 52 39 16 18 75 14 58 50 68 5 20 0
Route 3: 0 90 3 51 24 96 88 62 22 54 0
Route 4: 0 41 73 79 43 97 44 23 37 76 0
Route 5: 0 72 99 7 35 1 86 94 29 21 9 0
Route 6: 0 61 57 6 98 55 36 10 83 0
Route 7: 0 87 81 31 56 11 59 0
Route 8: 0 74 67 64 63 48 65 40 28 66 0
Route 9: 0 47 85 91 60 70 13 71 0
Route 10: 0 26 45 89 12 95 17 15 92 4 77 0
Route 11: 0 30 69 33 93 84 80 32 8 53 0
Route 12: 0 34 46 27 82 78 0
